1 1 -2 0
1 1 3 0
1 4 5 0
1 -4 6 0
1 -5 7 0
1 -5 -8 0
1 -5 6 0
1 5 -9 0
1 -10 11 0
1 -10 5 0
1 10 -12 0
1 -10 13 0
1 -10 -4 0
1 -10 3 0
1 3 14 0
1 3 15 0
1 3 11 0
1 -3 -16 0
1 3 17 0
1 -3 -12 0
1 -18 -14 0
1 18 -19 0
1 18 5 0
1 18 20 0
1 18 17 0
1 -2 -18 0
1 2 -21 0
1 2 -1 0
1 -13 7 0
1 -13 6 0
1 13 9 0
1 11 -7 0
1 11 -22 0
1 -11 -10 0
1 -12 7 0
1 12 15 0
1 -12 10 0
1 12 -9 0
1 15 -23 0
1 -15 -10 0
1 -15 6 0
1 15 -24 0
1 -9 -25 0
1 -9 -12 0
1 9 -13 0
1 -9 4 0
1 7 -26 0
1 7 -15 0
1 7 -27 0
1 -7 -28 0
1 -7 29 0
1 6 -30 0
1 -6 14 0
1 -6 -15 0
1 6 5 0
1 -6 31 0
1 6 -12 0
1 -32 -11 0
1 32 17 0
1 32 -13 0
1 -28 9 0
1 -25 33 0
1 -25 28 0
1 -34 7 0
1 -34 35 0
1 36 7 0
1 -36 34 0
1 -36 9 0
1 36 -37 0
1 -24 15 0
1 24 -28 0
1 -24 38 0
1 23 -36 0
1 37 -25 0
1 -37 -39 0
1 -37 -40 0
1 37 -27 0
1 37 41 0
1 33 42 0
1 -33 -39 0
1 -33 -40 0
1 -33 34 0
1 -43 -44 0
1 -43 45 0
1 -44 -46 0
1 -47 -8 0
1 47 -4 0
1 -47 48 0
1 8 -49 0
1 -8 50 0
1 -8 51 0
1 8 52 0
1 -46 22 0
1 -46 44 0
1 52 46 0
1 -49 53 0
1 -49 -54 0
1 49 -8 0
1 49 55 0
1 49 43 0
1 -21 -50 0
1 -21 -51 0
1 21 52 0
1 22 -56 0
1 -22 -52 0
1 22 -57 0
1 -22 -21 0
1 58 51 0
1 58 59 0
1 -58 -18 0
1 58 -57 0
1 -58 60 0
1 -58 61 0
1 58 62 0
1 19 46 0
1 19 58 0
1 19 -62 0
1 -51 -63 0
1 -51 22 0
1 -51 64 0
1 -51 17 0
1 65 22 0
1 -65 64 0
1 65 -17 0
1 65 -66 0
1 -50 63 0
1 50 67 0
1 -50 -64 0
1 50 -57 0
1 -50 55 0
1 57 -50 0
1 -57 64 0
1 57 -68 0
1 57 21 0
1 17 6 0
1 -17 -28 0
1 17 -55 0
1 17 -65 0
1 -17 2 0
1 -14 6 0
1 -14 61 0
1 14 -2 0
1 14 3 0
1 35 -69 0
1 35 -51 0
1 -35 59 0
1 -35 -70 0
1 35 -65 0
1 -35 -62 0
1 30 36 0
1 30 -51 0
1 -30 20 0
1 -30 71 0
1 30 6 0
1 30 72 0
1 70 -73 0
1 -70 -58 0
1 62 14 0
1 -62 70 0
1 -62 -40 0
1 -62 27 0
1 59 -64 0
1 -61 -63 0
1 -61 17 0
1 -61 -74 0
1 -27 -69 0
1 -27 -33 0
1 27 -37 0
1 27 -72 0
1 27 29 0
1 -29 -70 0
1 29 20 0
1 -29 -71 0
1 29 -37 0
1 -40 -69 0
1 -40 71 0
1 40 62 0
1 -75 -33 0
1 75 -40 0
1 75 -31 0
1 75 -37 0
1 71 -76 0
1 -69 -77 0
1 -69 78 0
1 -69 -79 0
1 69 39 0
1 69 -71 0
1 69 -3 0
1 69 80 0
1 20 78 0
1 -20 40 0
1 20 -81 0
1 -72 -30 0
1 -72 78 0
1 72 -82 0
1 -72 73 0
1 -72 -35 0
1 -72 2 0
1 -39 69 0
1 -39 -24 0
1 76 -26 0
1 76 -83 0
1 76 -24 0
1 79 -84 0
1 79 -85 0
1 -79 41 0
1 85 -84 0
1 -85 -83 0
1 -83 -86 0
1 -83 26 0
1 83 -79 0
1 -83 -9 0
1 83 87 0
1 -83 -85 0
1 26 -7 0
1 26 -88 0
1 26 -89 0
1 26 -39 0
1 26 -83 0
1 31 79 0
1 31 6 0
1 31 90 0
1 31 -76 0
1 84 40 0
1 84 -90 0
1 84 76 0
1 84 75 0
1 91 92 0
1 92 -26 0
1 92 83 0
1 89 -42 0
1 89 -93 0
1 89 -94 0
1 89 87 0
1 -89 41 0
1 87 -26 0
1 87 -41 0
1 87 38 0
1 38 95 0
1 -38 -91 0
1 38 96 0
1 -38 85 0
1 94 97 0
1 94 -87 0
1 94 -38 0
1 -41 -79 0
1 41 98 0
1 42 95 0
1 42 -79 0
1 42 90 0
1 -42 87 0
1 99 -100 0
1 -101 102 0
1 -101 99 0
1 48 100 0
1 -48 -103 0
1 48 -102 0
1 -48 104 0
1 -48 -105 0
1 103 106 0
1 -103 105 0
1 -103 -48 0
1 104 60 0
1 -104 107 0
1 104 99 0
1 108 109 0
1 -108 103 0
1 108 48 0
1 -102 -110 0
1 100 -102 0
1 -107 111 0
1 107 -106 0
1 -56 22 0
1 -56 -111 0
1 56 -107 0
1 -60 111 0
1 -60 58 0
1 -60 -105 0
1 112 49 0
1 -106 67 0
1 -106 55 0
1 -106 60 0
1 -106 107 0
1 113 -67 0
1 -113 -54 0
1 113 -106 0
1 -105 112 0
1 -105 60 0
1 -105 -107 0
1 -111 -114 0
1 -111 112 0
1 -111 115 0
1 -111 116 0
1 -111 60 0
1 -55 -49 0
1 55 54 0
1 55 113 0
1 55 -52 0
1 55 -106 0
1 55 -117 0
1 54 -52 0
1 54 57 0
1 118 -53 0
1 -118 -35 0
1 -118 -119 0
1 -118 57 0
1 118 106 0
1 -67 -120 0
1 67 -106 0
1 121 -54 0
1 121 -112 0
1 -121 -122 0
1 121 64 0
1 -121 55 0
1 121 60 0
1 -121 -74 0
1 123 67 0
1 123 -124 0
1 117 -114 0
1 -117 125 0
1 -117 -126 0
1 117 -116 0
1 -117 -118 0
1 117 127 0
1 -126 67 0
1 126 -54 0
1 126 124 0
1 -126 -127 0
1 -64 121 0
1 -64 57 0
1 64 -61 0
1 63 -53 0
1 63 -128 0
1 63 50 0
1 -63 -119 0
1 63 57 0
1 -129 130 0
1 -129 -59 0
1 -129 119 0
1 129 68 0
1 129 -66 0
1 -129 -61 0
1 74 121 0
1 -74 128 0
1 -74 129 0
1 -74 -120 0
1 128 63 0
1 -128 73 0
1 -128 -118 0
1 -119 -67 0
1 119 128 0
1 119 -129 0
1 119 -118 0
1 -119 -131 0
1 -53 -49 0
1 53 132 0
1 -53 133 0
1 53 122 0
1 -53 134 0
1 -53 -124 0
1 53 -74 0
1 -120 -133 0
1 -120 -134 0
1 120 124 0
1 73 -128 0
1 73 135 0
1 -73 20 0
1 -131 -72 0
1 -82 136 0
1 -82 -66 0
1 -82 81 0
1 81 136 0
1 -81 -137 0
1 81 -119 0
1 -81 66 0
1 81 -85 0
1 135 -93 0
1 -135 -82 0
1 135 -73 0
1 -135 80 0
1 -135 -131 0
1 -66 -78 0
1 -66 135 0
1 -66 82 0
1 66 -73 0
1 66 -138 0
1 130 82 0
1 130 -73 0
1 -130 -139 0
1 -68 -140 0
1 -68 141 0
1 68 -129 0
1 68 142 0
1 68 -134 0
1 68 -74 0
1 78 -69 0
1 -78 84 0
1 -78 -66 0
1 78 135 0
1 -78 31 0
1 -78 143 0
1 80 69 0
1 -80 -71 0
1 -80 92 0
1 -80 134 0
1 93 -77 0
1 -93 144 0
1 -93 145 0
1 93 -66 0
1 -93 -143 0
1 93 146 0
1 -145 77 0
1 -145 84 0
1 145 93 0
1 -145 -136 0
1 145 -144 0
1 145 -143 0
1 -145 146 0
1 137 -147 0
1 -137 93 0
1 137 -70 0
1 137 -148 0
1 137 149 0
1 137 145 0
1 -137 143 0
1 143 150 0
1 143 93 0
1 -143 -82 0
1 -143 -149 0
1 -143 145 0
1 -136 147 0
1 136 -151 0
1 136 152 0
1 153 -139 0
1 -153 -145 0
1 153 61 0
1 153 154 0
1 86 42 0
1 90 155 0
1 90 83 0
1 150 -77 0
1 150 -151 0
1 -150 137 0
1 150 -149 0
1 150 155 0
1 -149 150 0
1 -149 -156 0
1 149 155 0
1 -149 157 0
1 149 146 0
1 155 -149 0
1 155 145 0
1 -155 -158 0
1 -77 155 0
1 -144 -159 0
1 -144 160 0
1 -144 -90 0
1 144 -161 0
1 -144 146 0
1 -144 -162 0
1 -146 -148 0
1 -146 -72 0
1 -95 -94 0
1 95 -41 0
1 -95 38 0
1 -96 77 0
1 -96 88 0
1 -96 148 0
1 -96 -157 0
1 158 -97 0
1 158 -163 0
1 158 -98 0
1 164 -165 0
1 163 88 0
1 163 164 0
1 -163 -166 0
1 -88 -95 0
1 88 -26 0
1 -88 167 0
1 -88 96 0
1 88 166 0
1 157 -168 0
1 -157 31 0
1 -157 169 0
1 -156 -150 0
1 -156 -84 0
1 156 159 0
1 156 157 0
1 -156 161 0
1 156 158 0
1 -170 -97 0
1 170 -163 0
1 167 -97 0
1 166 97 0
1 -171 88 0
1 -171 97 0
1 -165 171 0
1 165 -38 0
1 -165 -158 0
1 -97 -166 0
1 98 172 0
1 -98 167 0
1 -98 41 0
1 -98 170 0
1 -172 171 0
1 172 -167 0
1 172 164 0
1 116 -114 0
1 116 173 0
1 -116 -111 0
1 116 113 0
1 -116 -126 0
1 116 -110 0
1 116 105 0
1 114 -110 0
1 114 174 0
1 -114 105 0
1 175 176 0
1 175 -110 0
1 175 -177 0
1 127 -178 0
1 -174 -133 0
1 -174 122 0
1 174 -175 0
1 -174 -116 0
1 109 -114 0
1 -109 -174 0
1 -109 179 0
1 109 124 0
1 110 173 0
1 -110 -180 0
1 -110 127 0
1 -173 -114 0
1 -173 100 0
1 173 -175 0
1 -173 116 0
1 -122 -121 0
1 122 -73 0
1 -124 53 0
1 -124 109 0
1 -124 115 0
1 124 -122 0
1 -133 -181 0
1 -133 179 0
1 -179 -115 0
1 -179 81 0
1 -179 -125 0
1 177 -124 0
1 176 -141 0
1 176 -124 0
1 -176 127 0
1 178 182 0
1 -178 -133 0
1 178 175 0
1 -178 124 0
1 -115 -182 0
1 -115 -111 0
1 -115 133 0
1 -115 -183 0
1 -115 122 0
1 -115 -175 0
1 -115 178 0
1 -115 -184 0
1 132 130 0
1 -132 -125 0
1 134 119 0
1 -134 -177 0
1 141 130 0
1 141 93 0
1 141 185 0
1 141 -68 0
1 -142 176 0
1 142 -181 0
1 142 186 0
1 -187 188 0
1 -187 142 0
1 181 188 0
1 181 151 0
1 -181 -133 0
1 181 142 0
1 181 134 0
1 -125 188 0
1 -125 -133 0
1 -125 185 0
1 125 189 0
1 -185 190 0
1 185 -182 0
1 185 -132 0
1 185 184 0
1 185 -125 0
1 -140 -86 0
1 -140 -130 0
1 140 191 0
1 -140 -181 0
1 -140 139 0
1 -140 186 0
1 140 -66 0
1 139 -140 0
1 -139 -181 0
1 -139 90 0
1 151 -192 0
1 -151 193 0
1 151 194 0
1 151 -138 0
1 -151 -153 0
1 195 192 0
1 -195 -181 0
1 -195 -149 0
1 -195 196 0
1 -195 -193 0
1 -195 -138 0
1 -191 147 0
1 -191 140 0
1 -191 -148 0
1 -191 -139 0
1 186 -140 0
1 -186 148 0
1 -186 139 0
1 197 -198 0
1 197 151 0
1 -197 -141 0
1 -197 -199 0
1 197 -189 0
1 197 195 0
1 197 193 0
1 -197 -142 0
1 193 -188 0
1 -193 140 0
1 193 -195 0
1 147 -191 0
1 -147 -200 0
1 -147 137 0
1 -147 -148 0
1 147 144 0
1 147 -153 0
1 148 147 0
1 -148 192 0
1 -148 136 0
1 -148 -137 0
1 148 153 0
1 148 -146 0
1 -162 -160 0
1 162 -194 0
1 -162 -146 0
1 160 200 0
1 -160 -162 0
1 -160 152 0
1 160 164 0
1 -160 201 0
1 -200 147 0
1 -200 -151 0
1 200 -168 0
1 200 -169 0
1 138 151 0
1 138 -159 0
1 -192 147 0
1 192 194 0
1 194 -151 0
1 194 160 0
1 -194 202 0
1 161 203 0
1 -161 -201 0
1 -159 156 0
1 -159 152 0
1 -159 203 0
1 -159 154 0
1 169 -156 0
1 169 -200 0
1 169 138 0
1 169 154 0
1 -169 -201 0
1 168 203 0
1 -168 -169 0
1 203 -168 0
1 -203 159 0
1 -203 137 0
1 203 -161 0
1 -201 160 0
1 152 136 0
1 -152 161 0
1 -152 162 0
1 154 -159 0
1 154 152 0
1 -154 160 0
1 -154 -153 0
1 -154 -169 0
1 -154 162 0
1 182 -140 0
1 -182 204 0
1 -182 115 0
1 182 176 0
1 182 185 0
1 -182 -184 0
1 -182 -177 0
1 182 -125 0
1 184 -182 0
1 184 185 0
1 -184 -139 0
1 184 -178 0
1 -184 177 0
1 -190 204 0
1 190 -205 0
1 190 196 0
1 -190 -206 0
1 190 -207 0
1 -196 204 0
1 196 183 0
1 -196 -180 0
1 196 -125 0
1 206 190 0
1 -206 174 0
1 -208 198 0
1 -180 196 0
1 -204 -190 0
1 204 -182 0
1 -204 -180 0
1 -204 184 0
1 188 -187 0
1 -188 197 0
1 -188 205 0
1 188 181 0
1 189 -188 0
1 -189 -185 0
1 189 -148 0
1 189 193 0
1 189 -207 0
1 198 205 0
1 -198 -193 0
1 198 -206 0
1 -199 209 0
1 -199 210 0
1 199 -208 0
1 199 -205 0
1 207 -211 0
1 207 -205 0
1 207 189 0
1 205 -188 0
1 205 176 0
1 205 -207 0
1 212 -198 0
1 -212 183 0
1 212 -199 0
1 -212 -196 0
1 -212 178 0
1 -183 -188 0
1 183 -115 0
1 -183 212 0
1 213 -209 0
1 -213 159 0
1 213 214 0
1 202 209 0
1 -211 205 0
1 -211 207 0
1 -210 -202 0
1 215 199 0
1 -215 181 0
1 -215 -202 0
1 -214 -198 0
1 214 211 0
